35 66 48 53 14 16 22 79 85 87 39 62 25 76 13 17 30 71 84 88 34 49 52 67 4 97 12 21 23 78 80 89 10 91 9 92 11 18 45 47 54 56 83 90 8 93 2 20 26 41 60 75 81 99 40 61 37 42 59 64 28 31 50 51 70 73 6 95 1 5 29 33 46 55 68 72 96 100 27 74 36 43 58 65 44 57 32 69 3 98 7 15 19 24 77 82 86 94 38 63
